NAME 
OBJSENSE MAX
ROWS
 N  OBJ
 L  packing[0]
 L  packing[1]
 L  packing[2]
 L  packing[3]
 L  packing[4]
 L  packing[5]
 L  packing[6]
 L  packing[7]
 L  packing[8]
 L  packing[9]
 L  packing[10]
 L  packing[11]
 L  packing[12]
 L  packing[13]
 L  packing[14]
 L  packing[15]
 L  packing[16]
 L  packing[17]
 L  packing[18]
 L  packing[19]
 L  packing[20]
 L  packing[21]
 L  packing[22]
 L  packing[23]
 L  packing[24]
 L  packing[25]
 L  packing[26]
 L  packing[27]
 L  packing[28]
 L  packing[29]
 L  packing[30]
 L  packing[31]
 L  packing[32]
 L  packing[33]
 L  packing[34]
 L  packing[35]
 L  packing[36]
 L  packing[37]
 L  packing[38]
 L  packing[39]
 L  packing[40]
 L  packing[41]
 L  packing[42]
 L  packing[43]
 L  packing[44]
 L  packing[45]
 L  packing[46]
 L  packing[47]
 L  packing[48]
 L  packing[49]
 L  R58     
 L  R59     
 L  R60     
 L  R61     
 L  R62     
 L  R63     
 L  R64     
 L  R65     
COLUMNS
    MARKER    'MARKER'                 'INTORG'
    x[1]      OBJ       171
    x[1]      packing[1]  158
    x[1]      packing[2]  128
    x[1]      packing[3]  103
    x[1]      packing[5]  54
    x[1]      packing[7]  10
    x[1]      packing[8]  179
    x[1]      packing[9]  7
    x[1]      packing[10]  85
    x[1]      packing[11]  93
    x[1]      packing[12]  105
    x[1]      packing[13]  1
    x[1]      packing[14]  7
    x[1]      packing[17]  58
    x[1]      packing[18]  60
    x[1]      packing[19]  19
    x[1]      packing[20]  2
    x[1]      packing[21]  96
    x[1]      packing[22]  168
    x[1]      packing[23]  7
    x[1]      packing[24]  186
    x[1]      packing[25]  79
    x[1]      packing[28]  183
    x[1]      packing[29]  192
    x[1]      packing[30]  192
    x[1]      packing[31]  88
    x[1]      packing[34]  186
    x[1]      packing[35]  158
    x[1]      packing[36]  187
    x[1]      packing[37]  48
    x[1]      packing[38]  22
    x[1]      packing[40]  102
    x[1]      packing[41]  148
    x[1]      packing[42]  23
    x[1]      packing[44]  119
    x[1]      packing[46]  70
    x[1]      packing[47]  109
    x[1]      R58       1
    x[2]      OBJ       86
    x[2]      packing[0]  59
    x[2]      packing[1]  121
    x[2]      packing[2]  90
    x[2]      packing[3]  113
    x[2]      packing[4]  141
    x[2]      packing[5]  4
    x[2]      packing[6]  138
    x[2]      packing[8]  140
    x[2]      packing[9]  59
    x[2]      packing[13]  106
    x[2]      packing[14]  115
    x[2]      packing[15]  108
    x[2]      packing[16]  174
    x[2]      packing[17]  12
    x[2]      packing[18]  51
    x[2]      packing[20]  48
    x[2]      packing[21]  16
    x[2]      packing[22]  61
    x[2]      packing[23]  22
    x[2]      packing[24]  71
    x[2]      packing[26]  98
    x[2]      packing[27]  155
    x[2]      packing[28]  126
    x[2]      packing[29]  95
    x[2]      packing[30]  28
    x[2]      packing[31]  23
    x[2]      packing[32]  108
    x[2]      packing[33]  176
    x[2]      packing[34]  163
    x[2]      packing[35]  16
    x[2]      packing[36]  105
    x[2]      packing[37]  138
    x[2]      packing[38]  47
    x[2]      packing[40]  178
    x[2]      packing[41]  43
    x[2]      packing[43]  133
    x[2]      packing[45]  167
    x[2]      packing[47]  146
    x[2]      packing[48]  123
    x[2]      packing[49]  11
    x[3]      OBJ       14
    x[3]      packing[2]  190
    x[3]      packing[3]  141
    x[3]      packing[4]  199
    x[3]      packing[5]  149
    x[3]      packing[7]  82
    x[3]      packing[8]  189
    x[3]      packing[9]  191
    x[3]      packing[10]  184
    x[3]      packing[11]  166
    x[3]      packing[13]  85
    x[3]      packing[14]  63
    x[3]      packing[15]  66
    x[3]      packing[16]  151
    x[3]      packing[17]  152
    x[3]      packing[18]  64
    x[3]      packing[19]  175
    x[3]      packing[20]  99
    x[3]      packing[21]  94
    x[3]      packing[25]  100
    x[3]      packing[28]  52
    x[3]      packing[31]  62
    x[3]      packing[34]  15
    x[3]      packing[35]  181
    x[3]      packing[36]  194
    x[3]      packing[37]  178
    x[3]      packing[39]  76
    x[3]      packing[41]  51
    x[3]      packing[43]  182
    x[3]      packing[44]  93
    x[3]      packing[45]  5
    x[3]      packing[46]  150
    x[3]      packing[47]  2
    x[3]      packing[48]  97
    x[3]      packing[49]  101
    x[4]      OBJ       94
    x[4]      packing[0]  16
    x[4]      packing[1]  126
    x[4]      packing[2]  149
    x[4]      packing[4]  21
    x[4]      packing[5]  89
    x[4]      packing[6]  56
    x[4]      packing[7]  88
    x[4]      packing[8]  35
    x[4]      packing[9]  191
    x[4]      packing[10]  36
    x[4]      packing[11]  1
    x[4]      packing[12]  130
    x[4]      packing[13]  76
    x[4]      packing[15]  146
    x[4]      packing[16]  72
    x[4]      packing[17]  75
    x[4]      packing[18]  27
    x[4]      packing[19]  184
    x[4]      packing[20]  132
    x[4]      packing[22]  110
    x[4]      packing[26]  145
    x[4]      packing[27]  48
    x[4]      packing[28]  71
    x[4]      packing[29]  130
    x[4]      packing[30]  190
    x[4]      packing[31]  173
    x[4]      packing[32]  70
    x[4]      packing[33]  73
    x[4]      packing[34]  53
    x[4]      packing[35]  9
    x[4]      packing[38]  71
    x[4]      packing[39]  107
    x[4]      packing[40]  187
    x[4]      packing[41]  48
    x[4]      packing[43]  22
    x[4]      packing[44]  98
    x[4]      packing[45]  179
    x[4]      packing[47]  31
    x[4]      packing[49]  105
    x[5]      OBJ       97
    x[5]      packing[0]  28
    x[5]      packing[1]  123
    x[5]      packing[2]  145
    x[5]      packing[3]  72
    x[5]      packing[7]  147
    x[5]      packing[9]  143
    x[5]      packing[10]  99
    x[5]      packing[11]  16
    x[5]      packing[12]  48
    x[5]      packing[13]  160
    x[5]      packing[14]  111
    x[5]      packing[15]  57
    x[5]      packing[16]  155
    x[5]      packing[17]  199
    x[5]      packing[19]  8
    x[5]      packing[20]  114
    x[5]      packing[22]  143
    x[5]      packing[23]  99
    x[5]      packing[24]  91
    x[5]      packing[26]  73
    x[5]      packing[27]  32
    x[5]      packing[30]  65
    x[5]      packing[31]  32
    x[5]      packing[32]  53
    x[5]      packing[33]  44
    x[5]      packing[34]  106
    x[5]      packing[35]  102
    x[5]      packing[36]  48
    x[5]      packing[41]  22
    x[5]      packing[42]  136
    x[5]      packing[43]  105
    x[5]      packing[45]  180
    x[5]      packing[46]  129
    x[5]      packing[47]  153
    x[5]      packing[49]  26
    x[5]      R58       1
    x[5]      R59       1
    x[5]      R60       1
    x[5]      R61       1
    x[5]      R62       1
    x[5]      R63       1
    x[5]      R64       1
    x[5]      R65       1
    x[6]      OBJ       39
    x[6]      packing[0]  125
    x[6]      packing[1]  40
    x[6]      packing[6]  75
    x[6]      packing[7]  96
    x[6]      packing[8]  59
    x[6]      packing[9]  22
    x[6]      packing[10]  150
    x[6]      packing[11]  67
    x[6]      packing[13]  13
    x[6]      packing[15]  171
    x[6]      packing[16]  104
    x[6]      packing[19]  122
    x[6]      packing[20]  159
    x[6]      packing[21]  131
    x[6]      packing[22]  197
    x[6]      packing[23]  181
    x[6]      packing[24]  195
    x[6]      packing[26]  52
    x[6]      packing[27]  33
    x[6]      packing[28]  178
    x[6]      packing[30]  139
    x[6]      packing[32]  61
    x[6]      packing[33]  30
    x[6]      packing[34]  59
    x[6]      packing[35]  108
    x[6]      packing[37]  184
    x[6]      packing[38]  109
    x[6]      packing[39]  107
    x[6]      packing[41]  47
    x[6]      packing[43]  48
    x[6]      packing[45]  165
    x[6]      packing[47]  35
    x[6]      packing[49]  102
    x[7]      OBJ       157
    x[7]      packing[1]  130
    x[7]      packing[2]  49
    x[7]      packing[4]  154
    x[7]      packing[5]  114
    x[7]      packing[6]  109
    x[7]      packing[8]  199
    x[7]      packing[11]  186
    x[7]      packing[12]  188
    x[7]      packing[14]  68
    x[7]      packing[15]  72
    x[7]      packing[17]  142
    x[7]      packing[18]  170
    x[7]      packing[19]  60
    x[7]      packing[21]  190
    x[7]      packing[22]  192
    x[7]      packing[24]  175
    x[7]      packing[25]  119
    x[7]      packing[26]  125
    x[7]      packing[27]  140
    x[7]      packing[30]  64
    x[7]      packing[31]  39
    x[7]      packing[34]  56
    x[7]      packing[35]  163
    x[7]      packing[36]  5
    x[7]      packing[37]  27
    x[7]      packing[38]  97
    x[7]      packing[39]  125
    x[7]      packing[40]  174
    x[7]      packing[41]  2
    x[7]      packing[42]  79
    x[7]      packing[45]  17
    x[7]      packing[46]  146
    x[7]      packing[47]  7
    x[7]      packing[49]  149
    x[8]      OBJ       55
    x[8]      packing[0]  92
    x[8]      packing[6]  111
    x[8]      packing[7]  73
    x[8]      packing[8]  147
    x[8]      packing[9]  110
    x[8]      packing[10]  163
    x[8]      packing[11]  62
    x[8]      packing[12]  5
    x[8]      packing[14]  101
    x[8]      packing[15]  12
    x[8]      packing[16]  12
    x[8]      packing[17]  21
    x[8]      packing[18]  100
    x[8]      packing[19]  5
    x[8]      packing[20]  93
    x[8]      packing[21]  185
    x[8]      packing[22]  16
    x[8]      packing[23]  125
    x[8]      packing[24]  29
    x[8]      packing[25]  77
    x[8]      packing[27]  91
    x[8]      packing[28]  47
    x[8]      packing[30]  140
    x[8]      packing[31]  73
    x[8]      packing[32]  28
    x[8]      packing[33]  128
    x[8]      packing[34]  55
    x[8]      packing[35]  190
    x[8]      packing[37]  91
    x[8]      packing[38]  71
    x[8]      packing[39]  25
    x[8]      packing[40]  170
    x[8]      packing[41]  109
    x[8]      packing[42]  85
    x[8]      packing[43]  145
    x[8]      packing[45]  27
    x[8]      packing[46]  121
    x[8]      packing[47]  144
    x[8]      packing[48]  199
    x[8]      packing[49]  149
    x[9]      OBJ       98
    x[9]      packing[1]  63
    x[9]      packing[2]  73
    x[9]      packing[3]  23
    x[9]      packing[4]  38
    x[9]      packing[5]  81
    x[9]      packing[6]  120
    x[9]      packing[8]  57
    x[9]      packing[9]  156
    x[9]      packing[10]  113
    x[9]      packing[11]  173
    x[9]      packing[13]  135
    x[9]      packing[16]  164
    x[9]      packing[18]  15
    x[9]      packing[19]  14
    x[9]      packing[20]  133
    x[9]      packing[23]  37
    x[9]      packing[25]  78
    x[9]      packing[26]  128
    x[9]      packing[27]  179
    x[9]      packing[28]  45
    x[9]      packing[29]  9
    x[9]      packing[30]  78
    x[9]      packing[31]  48
    x[9]      packing[32]  163
    x[9]      packing[33]  28
    x[9]      packing[36]  194
    x[9]      packing[37]  60
    x[9]      packing[38]  50
    x[9]      packing[39]  33
    x[9]      packing[41]  141
    x[9]      packing[43]  147
    x[9]      packing[44]  68
    x[9]      packing[45]  71
    x[9]      packing[46]  69
    x[9]      packing[47]  138
    x[9]      packing[49]  26
    x[9]      R60       1
    x[9]      R62       1
    x[9]      R63       1
    x[9]      R65       1
    x[10]     OBJ       110
    x[10]     packing[1]  62
    x[10]     packing[4]  47
    x[10]     packing[5]  13
    x[10]     packing[7]  4
    x[10]     packing[9]  186
    x[10]     packing[10]  89
    x[10]     packing[12]  26
    x[10]     packing[14]  103
    x[10]     packing[15]  165
    x[10]     packing[17]  178
    x[10]     packing[18]  128
    x[10]     packing[19]  138
    x[10]     packing[20]  179
    x[10]     packing[22]  152
    x[10]     packing[23]  60
    x[10]     packing[24]  43
    x[10]     packing[25]  35
    x[10]     packing[27]  131
    x[10]     packing[29]  181
    x[10]     packing[30]  34
    x[10]     packing[31]  168
    x[10]     packing[32]  12
    x[10]     packing[33]  80
    x[10]     packing[34]  152
    x[10]     packing[35]  170
    x[10]     packing[36]  15
    x[10]     packing[39]  58
    x[10]     packing[42]  165
    x[10]     packing[43]  21
    x[10]     packing[44]  46
    x[10]     packing[45]  17
    x[10]     packing[47]  146
    x[10]     packing[48]  16
    x[10]     packing[49]  51
    x[10]     R59       1
    x[10]     R60       1
    x[10]     R61       1
    x[10]     R62       1
    x[10]     R63       1
    x[10]     R64       1
    x[10]     R65       1
    x[11]     OBJ       120
    x[11]     packing[0]  198
    x[11]     packing[1]  98
    x[11]     packing[2]  177
    x[11]     packing[3]  127
    x[11]     packing[4]  153
    x[11]     packing[6]  88
    x[11]     packing[7]  188
    x[11]     packing[8]  140
    x[11]     packing[10]  60
    x[11]     packing[11]  38
    x[11]     packing[12]  30
    x[11]     packing[13]  104
    x[11]     packing[14]  75
    x[11]     packing[15]  127
    x[11]     packing[16]  1
    x[11]     packing[17]  154
    x[11]     packing[19]  12
    x[11]     packing[20]  48
    x[11]     packing[21]  58
    x[11]     packing[22]  19
    x[11]     packing[23]  142
    x[11]     packing[24]  41
    x[11]     packing[26]  163
    x[11]     packing[30]  185
    x[11]     packing[31]  198
    x[11]     packing[32]  59
    x[11]     packing[33]  105
    x[11]     packing[34]  172
    x[11]     packing[35]  139
    x[11]     packing[36]  151
    x[11]     packing[38]  189
    x[11]     packing[39]  178
    x[11]     packing[40]  154
    x[11]     packing[41]  188
    x[11]     packing[42]  195
    x[11]     packing[43]  90
    x[11]     packing[46]  187
    x[11]     packing[47]  120
    x[11]     packing[49]  113
    x[12]     OBJ       120
    x[12]     packing[0]  139
    x[12]     packing[1]  52
    x[12]     packing[2]  95
    x[12]     packing[4]  10
    x[12]     packing[5]  124
    x[12]     packing[6]  19
    x[12]     packing[9]  182
    x[12]     packing[11]  84
    x[12]     packing[12]  3
    x[12]     packing[13]  149
    x[12]     packing[14]  177
    x[12]     packing[15]  83
    x[12]     packing[16]  132
    x[12]     packing[19]  84
    x[12]     packing[20]  104
    x[12]     packing[22]  135
    x[12]     packing[24]  88
    x[12]     packing[26]  9
    x[12]     packing[27]  166
    x[12]     packing[29]  141
    x[12]     packing[30]  194
    x[12]     packing[31]  56
    x[12]     packing[34]  135
    x[12]     packing[36]  37
    x[12]     packing[37]  185
    x[12]     packing[38]  1
    x[12]     packing[39]  159
    x[12]     packing[40]  76
    x[12]     packing[41]  25
    x[12]     packing[42]  54
    x[12]     packing[43]  100
    x[12]     packing[44]  152
    x[12]     packing[46]  4
    x[12]     packing[47]  108
    x[12]     packing[48]  81
    x[12]     packing[49]  167
    x[12]     R60       1
    x[12]     R61       1
    x[12]     R62       1
    x[13]     OBJ       185
    x[13]     packing[2]  57
    x[13]     packing[3]  121
    x[13]     packing[4]  22
    x[13]     packing[5]  182
    x[13]     packing[7]  179
    x[13]     packing[8]  191
    x[13]     packing[9]  117
    x[13]     packing[11]  132
    x[13]     packing[12]  121
    x[13]     packing[14]  88
    x[13]     packing[15]  137
    x[13]     packing[16]  195
    x[13]     packing[18]  103
    x[13]     packing[19]  66
    x[13]     packing[20]  61
    x[13]     packing[21]  107
    x[13]     packing[22]  110
    x[13]     packing[23]  105
    x[13]     packing[24]  127
    x[13]     packing[27]  56
    x[13]     packing[28]  90
    x[13]     packing[33]  104
    x[13]     packing[35]  34
    x[13]     packing[36]  165
    x[13]     packing[37]  56
    x[13]     packing[38]  44
    x[13]     packing[39]  59
    x[13]     packing[40]  1
    x[13]     packing[41]  186
    x[13]     packing[43]  31
    x[13]     packing[44]  50
    x[13]     packing[46]  108
    x[13]     packing[48]  108
    x[13]     packing[49]  141
    x[13]     R58       1
    x[13]     R59       1
    x[13]     R60       1
    x[13]     R61       1
    x[13]     R62       1
    x[13]     R64       1
    x[14]     OBJ       99
    x[14]     packing[0]  61
    x[14]     packing[1]  15
    x[14]     packing[3]  82
    x[14]     packing[4]  127
    x[14]     packing[5]  22
    x[14]     packing[7]  194
    x[14]     packing[8]  177
    x[14]     packing[10]  12
    x[14]     packing[11]  21
    x[14]     packing[12]  162
    x[14]     packing[13]  23
    x[14]     packing[16]  165
    x[14]     packing[17]  140
    x[14]     packing[18]  38
    x[14]     packing[19]  141
    x[14]     packing[20]  6
    x[14]     packing[22]  169
    x[14]     packing[23]  173
    x[14]     packing[24]  45
    x[14]     packing[25]  121
    x[14]     packing[28]  10
    x[14]     packing[29]  88
    x[14]     packing[30]  154
    x[14]     packing[31]  65
    x[14]     packing[32]  2
    x[14]     packing[37]  159
    x[14]     packing[38]  143
    x[14]     packing[41]  86
    x[14]     packing[43]  196
    x[14]     packing[44]  144
    x[14]     packing[46]  30
    x[14]     packing[47]  1
    x[14]     packing[48]  178
    x[14]     R58       1
    x[14]     R59       1
    x[15]     OBJ       133
    x[15]     packing[0]  50
    x[15]     packing[1]  182
    x[15]     packing[2]  100
    x[15]     packing[3]  38
    x[15]     packing[5]  150
    x[15]     packing[7]  23
    x[15]     packing[8]  137
    x[15]     packing[9]  26
    x[15]     packing[10]  195
    x[15]     packing[11]  10
    x[15]     packing[12]  132
    x[15]     packing[15]  150
    x[15]     packing[16]  160
    x[15]     packing[18]  152
    x[15]     packing[19]  111
    x[15]     packing[20]  48
    x[15]     packing[21]  41
    x[15]     packing[22]  184
    x[15]     packing[23]  177
    x[15]     packing[24]  115
    x[15]     packing[25]  100
    x[15]     packing[26]  193
    x[15]     packing[27]  30
    x[15]     packing[28]  9
    x[15]     packing[29]  143
    x[15]     packing[30]  144
    x[15]     packing[31]  78
    x[15]     packing[32]  64
    x[15]     packing[33]  150
    x[15]     packing[34]  43
    x[15]     packing[35]  5
    x[15]     packing[36]  145
    x[15]     packing[37]  37
    x[15]     packing[38]  11
    x[15]     packing[39]  59
    x[15]     packing[41]  26
    x[15]     packing[42]  51
    x[15]     packing[43]  72
    x[15]     packing[44]  83
    x[15]     packing[45]  127
    x[15]     packing[47]  175
    x[15]     packing[48]  118
    x[15]     packing[49]  103
    x[15]     R63       1
    x[15]     R64       1
    x[15]     R65       1
    x[16]     OBJ       195
    x[16]     packing[0]  131
    x[16]     packing[1]  125
    x[16]     packing[2]  94
    x[16]     packing[3]  161
    x[16]     packing[4]  177
    x[16]     packing[6]  149
    x[16]     packing[7]  23
    x[16]     packing[10]  1
    x[16]     packing[11]  117
    x[16]     packing[12]  90
    x[16]     packing[14]  159
    x[16]     packing[16]  71
    x[16]     packing[17]  130
    x[16]     packing[18]  35
    x[16]     packing[19]  46
    x[16]     packing[21]  53
    x[16]     packing[24]  87
    x[16]     packing[25]  141
    x[16]     packing[27]  48
    x[16]     packing[28]  49
    x[16]     packing[29]  29
    x[16]     packing[30]  139
    x[16]     packing[31]  85
    x[16]     packing[32]  180
    x[16]     packing[33]  184
    x[16]     packing[34]  95
    x[16]     packing[35]  84
    x[16]     packing[39]  44
    x[16]     packing[41]  86
    x[16]     packing[42]  133
    x[16]     packing[43]  182
    x[16]     packing[44]  178
    x[16]     packing[45]  106
    x[16]     packing[46]  46
    x[16]     packing[47]  113
    x[16]     packing[48]  6
    x[16]     packing[49]  143
    x[16]     R58       1
    x[16]     R59       1
    x[16]     R61       1
    x[16]     R63       1
    x[16]     R64       1
    x[16]     R65       1
    x[17]     OBJ       5
    x[17]     packing[0]  17
    x[17]     packing[1]  138
    x[17]     packing[2]  24
    x[17]     packing[3]  68
    x[17]     packing[4]  171
    x[17]     packing[8]  22
    x[17]     packing[9]  108
    x[17]     packing[10]  130
    x[17]     packing[12]  181
    x[17]     packing[14]  30
    x[17]     packing[15]  116
    x[17]     packing[16]  142
    x[17]     packing[17]  167
    x[17]     packing[18]  141
    x[17]     packing[20]  117
    x[17]     packing[21]  196
    x[17]     packing[22]  137
    x[17]     packing[23]  95
    x[17]     packing[24]  93
    x[17]     packing[25]  83
    x[17]     packing[26]  26
    x[17]     packing[27]  118
    x[17]     packing[28]  116
    x[17]     packing[29]  96
    x[17]     packing[31]  109
    x[17]     packing[32]  76
    x[17]     packing[33]  108
    x[17]     packing[35]  134
    x[17]     packing[36]  129
    x[17]     packing[37]  68
    x[17]     packing[38]  111
    x[17]     packing[39]  128
    x[17]     packing[41]  109
    x[17]     packing[42]  151
    x[17]     packing[43]  61
    x[17]     packing[44]  190
    x[17]     packing[45]  86
    x[17]     packing[46]  92
    x[17]     packing[47]  156
    x[17]     packing[49]  150
    x[18]     OBJ       139
    x[18]     packing[0]  8
    x[18]     packing[1]  63
    x[18]     packing[4]  116
    x[18]     packing[5]  104
    x[18]     packing[6]  113
    x[18]     packing[7]  136
    x[18]     packing[8]  193
    x[18]     packing[10]  38
    x[18]     packing[11]  127
    x[18]     packing[12]  86
    x[18]     packing[13]  138
    x[18]     packing[15]  117
    x[18]     packing[16]  141
    x[18]     packing[17]  114
    x[18]     packing[18]  161
    x[18]     packing[20]  86
    x[18]     packing[21]  9
    x[18]     packing[22]  182
    x[18]     packing[24]  53
    x[18]     packing[25]  165
    x[18]     packing[26]  140
    x[18]     packing[27]  132
    x[18]     packing[28]  36
    x[18]     packing[30]  6
    x[18]     packing[31]  196
    x[18]     packing[33]  138
    x[18]     packing[34]  176
    x[18]     packing[35]  168
    x[18]     packing[36]  165
    x[18]     packing[37]  72
    x[18]     packing[38]  70
    x[18]     packing[39]  27
    x[18]     packing[40]  22
    x[18]     packing[41]  33
    x[18]     packing[42]  63
    x[18]     packing[43]  113
    x[18]     packing[45]  26
    x[18]     packing[46]  159
    x[18]     packing[47]  139
    x[18]     packing[48]  146
    x[18]     R59       1
    x[18]     R62       1
    x[18]     R64       1
    x[18]     R65       1
    x[19]     OBJ       145
    x[19]     packing[0]  23
    x[19]     packing[2]  27
    x[19]     packing[4]  188
    x[19]     packing[8]  40
    x[19]     packing[9]  93
    x[19]     packing[12]  60
    x[19]     packing[14]  72
    x[19]     packing[15]  125
    x[19]     packing[16]  77
    x[19]     packing[17]  57
    x[19]     packing[19]  137
    x[19]     packing[22]  100
    x[19]     packing[23]  80
    x[19]     packing[24]  86
    x[19]     packing[25]  80
    x[19]     packing[26]  188
    x[19]     packing[27]  78
    x[19]     packing[30]  25
    x[19]     packing[31]  163
    x[19]     packing[32]  199
    x[19]     packing[33]  121
    x[19]     packing[35]  44
    x[19]     packing[37]  14
    x[19]     packing[38]  71
    x[19]     packing[39]  184
    x[19]     packing[40]  105
    x[19]     packing[41]  54
    x[19]     packing[43]  154
    x[19]     packing[44]  159
    x[19]     packing[45]  125
    x[19]     packing[48]  115
    x[19]     packing[49]  55
    x[19]     R60       1
    x[19]     R61       1
    x[19]     R62       1
    x[19]     R63       1
    x[19]     R64       1
    x[19]     R65       1
    x[20]     OBJ       21
    x[20]     packing[1]  26
    x[20]     packing[2]  95
    x[20]     packing[3]  25
    x[20]     packing[4]  105
    x[20]     packing[5]  94
    x[20]     packing[7]  103
    x[20]     packing[8]  89
    x[20]     packing[9]  114
    x[20]     packing[10]  27
    x[20]     packing[11]  26
    x[20]     packing[12]  21
    x[20]     packing[13]  190
    x[20]     packing[14]  142
    x[20]     packing[15]  68
    x[20]     packing[16]  114
    x[20]     packing[17]  178
    x[20]     packing[20]  94
    x[20]     packing[21]  78
    x[20]     packing[22]  119
    x[20]     packing[23]  159
    x[20]     packing[24]  23
    x[20]     packing[25]  174
    x[20]     packing[26]  106
    x[20]     packing[27]  21
    x[20]     packing[28]  38
    x[20]     packing[29]  85
    x[20]     packing[31]  76
    x[20]     packing[32]  170
    x[20]     packing[33]  65
    x[20]     packing[34]  116
    x[20]     packing[35]  148
    x[20]     packing[36]  171
    x[20]     packing[37]  90
    x[20]     packing[38]  191
    x[20]     packing[40]  143
    x[20]     packing[41]  61
    x[20]     packing[42]  174
    x[20]     packing[43]  143
    x[20]     packing[44]  169
    x[20]     packing[46]  180
    x[20]     packing[47]  87
    x[20]     packing[49]  103
    MARKER    'MARKER'                 'INTEND'
RHS
    RHS1      packing[0]  474
    RHS1      packing[1]  761
    RHS1      packing[2]  747
    RHS1      packing[3]  537
    RHS1      packing[4]  835
    RHS1      packing[5]  590
    RHS1      packing[6]  489
    RHS1      packing[7]  673
    RHS1      packing[8]  997
    RHS1      packing[9]  853
    RHS1      packing[10]  691
    RHS1      packing[11]  660
    RHS1      packing[12]  694
    RHS1      packing[13]  590
    RHS1      packing[14]  656
    RHS1      packing[15]  860
    RHS1      packing[16]  1015
    RHS1      packing[17]  889
    RHS1      packing[18]  623
    RHS1      packing[19]  661
    RHS1      packing[20]  762
    RHS1      packing[21]  627
    RHS1      packing[22]  1097
    RHS1      packing[23]  731
    RHS1      packing[24]  774
    RHS1      packing[25]  676
    RHS1      packing[26]  723
    RHS1      packing[27]  729
    RHS1      packing[28]  525
    RHS1      packing[29]  595
    RHS1      packing[30]  889
    RHS1      packing[31]  866
    RHS1      packing[32]  623
    RHS1      packing[33]  767
    RHS1      packing[34]  791
    RHS1      packing[35]  927
    RHS1      packing[36]  856
    RHS1      packing[37]  704
    RHS1      packing[38]  649
    RHS1      packing[39]  685
    RHS1      packing[40]  656
    RHS1      packing[41]  733
    RHS1      packing[42]  655
    RHS1      packing[43]  973
    RHS1      packing[44]  775
    RHS1      packing[45]  649
    RHS1      packing[46]  746
    RHS1      packing[47]  905
    RHS1      packing[48]  594
    RHS1      packing[49]  848
    RHS1      R58       4
    RHS1      R59       5
    RHS1      R60       5
    RHS1      R61       5
    RHS1      R62       6
    RHS1      R63       5
    RHS1      R64       6
    RHS1      R65       6
BOUNDS
 BV BND1      x[1]    
 BV BND1      x[2]    
 BV BND1      x[3]    
 BV BND1      x[4]    
 BV BND1      x[5]    
 BV BND1      x[6]    
 BV BND1      x[7]    
 BV BND1      x[8]    
 BV BND1      x[9]    
 BV BND1      x[10]   
 BV BND1      x[11]   
 BV BND1      x[12]   
 BV BND1      x[13]   
 BV BND1      x[14]   
 BV BND1      x[15]   
 BV BND1      x[16]   
 BV BND1      x[17]   
 BV BND1      x[18]   
 BV BND1      x[19]   
 BV BND1      x[20]   
ENDATA
